[[59, 66, 11, 65, 38, 10, 58, 7, 26, 46, 34, 67, 76, 4, 75, 68, 30], [2, 33, 6, 51, 17, 40, 12, 72, 9, 39, 31, 25, 55, 18, 50], [32, 44, 3, 24, 49, 16, 63, 23, 56, 43, 41, 42, 64, 22], [73, 62, 28, 61, 74, 21, 48, 47, 36, 69, 71, 60], [70, 20, 37, 57, 15, 5, 29, 45, 27, 52, 13, 54, 19, 8, 35, 53, 14]]